(declare-const term_to_project_onto Real)
(declare-const term_to_project_onto1 Real)
(declare-const term_to_project_onto2 Real)
(declare-const term_to_project_onto0 Real)
(assert (exists
         ((|x'?1| Int) (havoc?2 Int) (phi_tmp?3 Int) (|tmp'?4| Int)
            (|y'?5| Int) (|__cost'?6| Int) (K?7 Int) (|y'?8| Int)
            (|tmp'?9| Int) (|__cost'?10| Int) (m?11 Int) (y?12 Int)
            (tmp?13 Int) (n?14 Int) (x?15 Int) (__cost?16 Int))
         (and (<= (+ (- n?14) x?15 1) 0) (<= (- __cost?16) 0)
                (<= (+ (- __cost?16) -1) 0)
                (= (+ (- |__cost'?6|) K?7 __cost?16 1) 0)
                (= (+ y?12 (- |y'?5|) K?7) 0)
                (or (and (= K?7 0) (= (+ y?12 (- |y'?5|)) 0)
                           (= (+ (- |tmp'?4|) tmp?13) 0)
                           (= (+ (- |__cost'?6|) __cost?16 1) 0))
                      (and (<= (+ (- K?7) 1) 0) (<= (+ (- m?11) y?12 1) 0)
                             (<= (- __cost?16) 0)
                             (<= (+ (- |__cost'?6|) 2) 0)
                             (<= (+ (- m?11) |y'?5|) 0))) (<= (- K?7) 0)
                (<= (+ (- |__cost'?6|) 1) 0)
                (or (and (<= (+ m?11 (- |y'?5|)) 0)
                           (= (+ (- phi_tmp?3) |tmp'?4|) 0))
                      (and (<= (+ (- m?11) |y'?5| 1) 0) (= havoc?2 0)
                             (= (+ havoc?2 (- phi_tmp?3)) 0)))
                (= (+ |y'?8| (- |y'?5|)) 0) (= (+ |x'?1| (- x?15) -1) 0)
                (= (+ |tmp'?9| (- phi_tmp?3)) 0)
                (= (+ |__cost'?10| (- |__cost'?6|)) 0)
                (= term_to_project_onto2 (+ |__cost'?10| (- __cost?16)))
                (= term_to_project_onto1 (+ |tmp'?9| (- tmp?13)))
                (= term_to_project_onto0 (+ |x'?1| (- x?15)))
                (= term_to_project_onto (+ |y'?8| (- y?12))))))
(check-sat)
